; benchmark generated from python API
(set-info :status unknown)
(declare-fun W_S1_V4 () Bool)
(declare-fun W_S1_V2 () Bool)
(declare-fun W_S1_V1 () Bool)
(declare-fun R_E1_V1 () Bool)
(declare-fun R_E1_V4 () Bool)
(declare-fun R_E1_V2 () Bool)
(declare-fun R_E1_V3 () Bool)
(declare-fun DISJ_W_S1_R_E1 () Bool)
(declare-fun R_S1_V4 () Bool)
(declare-fun R_S1_V2 () Bool)
(declare-fun R_S1_V3 () Bool)
(declare-fun R_S1_V1 () Bool)
(declare-fun DISJ_W_S1_R_S1 () Bool)
(declare-fun W_S1_V3 () Bool)
(assert
 (let (($x6040 (forall ((V1_0 Int) )(forall ((V3_0 Int) )(forall ((V2_0 Int) )(forall ((V4_0 Int) )(forall ((MW_S1_V1 Bool) )(forall ((MW_S1_V3 Bool) )(forall ((MW_S1_V2 Bool) )(forall ((MW_S1_V4 Bool) )(forall ((S1_V3_!70 Int) )(forall ((S1_V4_!72 Int) )(forall ((S1_V1_!69 Int) )(forall ((S1_V2_!71 Int) )(forall ((E1_!68 Int) )(forall ((E1_!73 Int) )(forall ((E1_!74 Int) )(let (($x5758 (= (ite MW_S1_V4 S1_V4_!72 V4_0) V4_0)))
 (let ((?x3440 (ite MW_S1_V2 S1_V2_!71 V2_0)))
 (let (($x3693 (= ?x3440 V2_0)))
 (let (($x1644 (= (ite MW_S1_V3 S1_V3_!70 V3_0) V3_0)))
 (let (($x1344 (and (not (<= V2_0 E1_!68)) (>= (ite MW_S1_V1 S1_V1_!69 E1_!68) (+ (- 1) ?x3440)) (not (<= V2_0 E1_!73)) (not (<= E1_!74 (+ (- 1) V2_0))))))
 (let (($x5399 (= E1_!74 E1_!73)))
 (let (($x1506 (not (or (not R_E1_V1) (= V2_0 (+ 1 V1_0))))))
 (let (($x3206 (and (= E1_!68 E1_!73) (or $x1506 (= E1_!74 E1_!68)) (or $x1506 $x5399) (or (not MW_S1_V1) W_S1_V1) (or (not MW_S1_V2) W_S1_V2) (or (not MW_S1_V4) W_S1_V4))))
 (or (not $x3206) (not $x1344) (and (= (ite MW_S1_V1 S1_V1_!69 E1_!68) (+ (- 1) V2_0)) $x1644 $x3693 $x5758)))))))))))
 )
 )
 )
 )
 )
 )
 )
 )
 )
 )
 )
 )
 )
 )
 ))
 (let (($x2787 (and W_S1_V4 R_E1_V4)))
 (let (($x30 (and W_S1_V2 R_E1_V2)))
 (let (($x5835 (and W_S1_V1 R_E1_V1)))
 (let (($x3627 (= DISJ_W_S1_R_E1 (not (or $x5835 R_E1_V3 $x30 $x2787)))))
 (let (($x846 (and W_S1_V4 R_S1_V4)))
 (let (($x2118 (and W_S1_V2 R_S1_V2)))
 (let (($x2486 (and W_S1_V1 R_S1_V1)))
 (let (($x1885 (= DISJ_W_S1_R_S1 (not (or $x2486 R_S1_V3 $x2118 $x846)))))
 (and W_S1_V3 $x1885 $x3627 $x6040)))))))))))
(check-sat)
